proyfinal/src/viki/013/experimentInOfficeAgust.take6.output/0287a3f6-f069-4062-943d-fb561d99cea6.als.out
Reading from standard input... Use '--help' for help.
============================[ Problem Statistics ]=============================
|                                                                             |
|  Number of variables:         87638                                         |
|  Number of clauses:          161767                                         |
|  Parse time:                   0.04 s                                       |
|                                                                             |
============================[ Search Statistics ]==============================
| Conflicts |          ORIGINAL         |          LEARNT          | Progress |
|           |    Vars  Clauses Literals |    Limit  Clauses Lit/Cl |          |
===============================================================================
|       100 |   62148   104510   260658 |    38320      100     10 | 29.086 % |
|       250 |   62148   104510   260658 |    42152      250     42 | 29.086 % |
|       475 |   62126   104418   260447 |    46367      474     35 | 29.111 % |
|       812 |   62054   104126   259753 |    51004      796     57 | 29.193 % |
|      1318 |   62054   104126   259753 |    56104     1302     64 | 29.193 % |
|      2077 |   61927   103592   258462 |    61715     2046     64 | 29.338 % |
|      3216 |   61833   103488   258212 |    67886     3178     73 | 29.445 % |
|      4924 |   53007    77057   193352 |    74675     4828     68 | 39.516 % |
|      7486 |   52724    76060   190990 |    82143     7361     64 | 39.839 % |
|     11330 |   52466    74734   187842 |    90357     9673     59 | 40.133 % |
===============================================================================
restarts              : 63
conflicts             : 16330          (8948 /sec)
decisions             : 52993          (0.00 % random) (29037 /sec)
propagations          : 19301067       (10575985 /sec)
conflict literals     : 941135         (44.59 % deleted)
Memory used           : 32.56 MB
CPU time              : 1.82499 s

UNSATISFIABLE
